c The Problem describing the plan needed for the murder mystery story
p cnf 41 50
-1 0
-2 4 0
-2 -25 0
-2 -28 0
-2 10 0
-3 7 0
-3 -25 0
-3 -28 0
-3 10 0
-5 0
-4 2 0
-4 -26 0
-4 -29 0
-4 11 0
-6 8 0
-6 -26 0
-6 -29 0
-6 11 0
-9 0
-7 3 0
-7 -27 0
-7 -30 0
-7 12 0
-8 6 0
-8 -27 0
-8 -30 0
-8 12 0
-10 2 3 0
-11 4 6 0
-12 7 8 0
-26 -10 0
-26 -11 0
-26 35 0
26 0
25 0
-26 0
-27 0
-28 0
29 0
-30 0
-31 0
-32 0
33 0
-33 12 -24 -19 -35 0
-33 12 -24 -20 -36 0
-33 12 -24 -21 -37 0
35 36 37 0
-35 -36 0
-35 -37 0
-36 -37 0
